clingo version 5.4.0
Reading from clingo\rna_ss_prediction_E2.lp
Solving...
Answer: 1
seq(1,c) seq(2,u) seq(3,u) seq(4,a) seq(5,c) seq(6,c) seq(7,a) seq(8,u) seq(9,c) seq(10,g) seq(11,g) seq(12,g) seq(13,u) seq(14,u) seq(15,a) seq(16,g) seq(17,a) seq(18,g) seq(19,g) seq(20,a) seq(21,g) contacts(0) energy2(2100)
Optimization: -2100
Answer: 2
seq(1,c) seq(2,u) seq(3,u) seq(4,a) seq(5,c) seq(6,c) seq(7,a) seq(8,u) seq(9,c) seq(10,g) seq(11,g) seq(12,g) seq(13,u) seq(14,u) seq(15,a) seq(16,g) seq(17,a) seq(18,g) seq(19,g) seq(20,a) seq(21,g) pairing(8,17) pairing(17,8) pairing(2,7) pairing(7,2) contacts(4) energy2(2136)
Optimization: -2136
Answer: 3
seq(1,c) seq(2,u) seq(3,u) seq(4,a) seq(5,c) seq(6,c) seq(7,a) seq(8,u) seq(9,c) seq(10,g) seq(11,g) seq(12,g) seq(13,u) seq(14,u) seq(15,a) seq(16,g) seq(17,a) seq(18,g) seq(19,g) seq(20,a) seq(21,g) pairing(8,17) pairing(17,8) pairing(13,15) pairing(15,13) pairing(2,7) pairing(7,2) contacts(6) energy2(2154)
Optimization: -2154
Answer: 4
seq(1,c) seq(2,u) seq(3,u) seq(4,a) seq(5,c) seq(6,c) seq(7,a) seq(8,u) seq(9,c) seq(10,g) seq(11,g) seq(12,g) seq(13,u) seq(14,u) seq(15,a) seq(16,g) seq(17,a) seq(18,g) seq(19,g) seq(20,a) seq(21,g) pairing(2,20) pairing(20,2) pairing(3,17) pairing(17,3) pairing(4,14) pairing(14,4) pairing(7,13) pairing(13,7) contacts(8) energy2(2172)
Optimization: -2172
OPTIMUM FOUND

Models       : 4
  Optimum    : yes
Optimization : -2172
Calls        : 1
Time         : 54.305s (Solving: 53.74s 1st Model: 0.03s Unsat: 48.34s)
CPU Time     : 54.297s